2491959
8,14,34,67,52,7,35,27,49,58,15,62,2,29,20,21,6,37,66,63,33,42,45,25,54,65,48,18,22,59,4,39,40,24,10,5,28,55,41,11,31,60,0,46,53,23,3,19,12,64,1,47,57,43,30,13,17,32,56,51,9,61,50,38,36,16,26,44
